(set-logic QF_BV)
(declare-fun x0 () Bool)
(declare-fun x1 () Bool)
(declare-fun x2 () (_ BitVec 32))
(declare-fun x3 () Bool)
(declare-fun x4 () (_ BitVec 32))
(declare-fun x5 () (_ BitVec 32))
(declare-fun x6 () (_ BitVec 8))
(assert (let ((?v_13 (bvadd x2 x4))) (let ((?v_17 (bvadd ?v_13 x5))) (let ((?v_14 (bvadd ?v_17 (_ bv0 32))) (?v_15 ((_ zero_extend 24) x6))) (and true (bvult ?v_14 (bvadd ?v_15 (_ bv1 32))) true x3 true x0 true x1 true (= (bvadd ?v_14 (bvsub (_ bv4294967295 32) ?v_15)) (_ bv0 32)) true)))))
(check-sat)
(exit)
